30 3
71 11
46 88
96 33
77 37
10 73
27 38
48 60
17 31
76 42
30 92
49 13
28 24
61 37
37 75
92 3
37 1
82 77
85 16
15 65
99 37
19 73
46 54
91 83
74 19
16 82
29 57
76 62
11 94
82 80
77 64
641 737
594 694
477 565
